unsat
(define-fun f ((x (_ BitVec 64))) (_ BitVec 64) (let ((_let_1 (ehad (ehad x)))) (im (bvand #b0000000000000000000000000000000000000000000000000000000000000001 x) #b0000000000000000000000000000000000000000000000000000000000000000 (im (bvand #b0000000000000000000000000000000000000000000000000000000000000001 _let_1) (bvnot #b0000000000000000000000000000000000000000000000000000000000000001) _let_1))))
31.36user 0.07system 0:31.44elapsed 99%CPU (0avgtext+0avgdata 148176maxresident)k
16inputs+8outputs (0major+34380minor)pagefaults 0swaps
